BAYES
361
2 2 2 2 2 2 2 2 2 2 2 2 2 2 2 2 2 2 2 2 2 2 2 2 2 2 2 2 2 2 2 2 2 2 2 2 2 2 2 2 2 2 2 2 2 2 2 2 2 2 2 2 2 2 2 2 2 2 2 2 2 2 2 2 2 2 2 2 2 2 2 2 2 2 2 2 2 2 2 2 2 2 2 2 2 2 2 2 2 2 2 2 2 2 2 2 2 2 2 2 2 2 2 2 2 2 2 2 2 2 2 2 2 2 2 2 2 2 2 2 2 2 2 2 2 2 2 2 2 2 2 2 2 2 2 2 2 2 2 2 2 2 2 2 2 2 2 2 2 2 2 2 2 2 2 2 2 2 2 2 2 2 2 2 2 2 2 2 2 2 2 2 2 2 2 2 2 2 2 2 2 2 2 2 2 2 2 2 2 2 2 2 2 2 2 2 2 2 2 2 2 2 2 2 2 2 2 2 2 2 2 2 2 2 2 2 2 2 2 2 2 2 2 2 2 2 2 2 2 2 2 2 2 2 2 2 2 2 2 2 2 2 2 2 2 2 2 2 2 2 2 2 2 2 2 2 2 2 2 2 2 2 2 2 2 2 2 2 2 2 2 2 2 2 2 2 2 2 2 2 2 2 2 2 2 2 2 2 2 2 2 2 2 2 2 2 2 2 2 2 2 2 2 2 2 2 2 2 2 2 2 2 2 2 2 2 2 2 2 2 2 2 2 2 2 2 2 2 2 2 2 2 2 2 2 2 2 2 2 2 2 2 2 2 2 2 2 2 2 2 2 2 2 2 2 2 2 2 2 2 2 
361
3	7	160	0
3	0	159	1
3	1	68	2
3	2	175	3
3	225	182	4
3	4	181	5
3	5	180	6
3	6	179	7
3	3	156	8
3	8	173	9
3	13	212	10
3	10	211	11
3	59	210	12
3	12	209	13
3	17	216	14
3	14	215	15
3	11	158	16
3	16	213	17
3	15	203	18
3	18	202	19
3	23	227	20
3	20	226	21
3	25	241	22
3	22	240	23
3	27	239	24
3	24	238	25
3	29	237	26
3	26	236	27
3	214	235	28
3	28	234	29
3	39	251	30
3	30	250	31
3	201	245	32
3	32	244	33
3	33	243	34
3	34	242	35
3	35	249	36
3	36	248	37
3	37	247	38
3	38	246	39
3	45	127	40
3	40	126	41
3	48	120	42
3	42	119	43
3	43	122	44
3	44	121	45
2	123	46
3	46	125	47
3	47	124	48
2	51	49
2	49	50
1	51
2	55	52
2	52	53
2	50	54
2	54	55
2	53	56
2	56	57
3	66	137	58
3	58	136	59
2	129	60
3	60	131	61
3	61	130	62
3	62	133	63
3	63	132	64
3	64	135	65
3	65	134	66
3	70	146	67
3	159	338	68
3	72	139	69
3	69	138	70
3	74	141	71
3	71	140	72
3	75	143	73
3	73	142	74
2	144	75
3	102	5	76
3	103	10	77
3	79	7	78
3	76	6	79
3	81	1	80
3	78	0	81
3	83	3	82
3	80	2	83
3	85	9	84
3	82	8	85
3	87	19	86
3	105	18	87
3	128	325	88
3	88	328	89
3	89	327	90
3	97	155	91
3	91	154	92
3	95	174	93
3	93	147	94
2	149	95
3	99	151	96
3	96	150	97
3	94	331	98
3	98	152	99
3	67	145	100
3	77	11	101
3	281	4	102
3	104	13	103
3	154	12	104
3	106	15	105
3	107	14	106
3	108	17	107
3	101	16	108
3	110	265	109
3	115	264	110
3	112	267	111
3	109	266	112
3	114	269	113
3	126	268	114
3	116	271	115
3	113	270	116
3	118	273	117
3	111	272	118
3	120	55	119
3	124	54	120
3	122	53	121
3	119	52	122
2	51	123
3	125	50	124
3	123	49	125
3	127	57	126
3	121	56	127
3	178	326	128
2	75	129
3	131	74	130
3	129	73	131
3	133	72	132
3	130	71	133
3	135	70	134
3	132	69	135
3	137	100	136
3	134	67	137
3	139	45	138
3	140	44	139
3	141	43	140
3	142	42	141
3	143	48	142
3	144	47	143
2	46	144
3	146	41	145
3	138	40	146
3	174	62	147
3	208	307	148
2	60	149
3	151	66	150
3	152	65	151
3	331	64	152
3	148	306	153
3	155	59	154
3	150	58	155
3	175	332	156
3	205	305	157
3	211	357	158
3	160	341	159
3	179	340	160
3	162	37	161
3	167	36	162
3	164	39	163
3	161	38	164
3	166	33	165
3	329	32	166
3	168	35	167
3	165	34	168
3	170	31	169
3	163	30	170
3	90	330	171
3	171	329	172
3	156	333	173
3	149	61	174
3	68	339	175
2	322	176
3	176	324	177
3	177	323	178
3	180	335	179
3	181	334	180
3	182	337	181
3	313	336	182
3	184	284	183
3	185	283	184
3	186	286	185
3	187	285	186
3	188	288	187
3	189	287	188
3	190	290	189
3	191	289	190
3	192	292	191
3	145	291	192
3	195	298	193
3	193	297	194
2	299	195
3	199	301	196
3	196	300	197
3	194	303	198
3	198	302	199
3	197	296	200
3	200	295	201
3	203	352	202
3	215	351	203
3	153	309	204
3	204	308	205
2	310	206
3	206	312	207
3	207	311	208
3	210	354	209
3	136	353	210
3	212	356	211
3	209	355	212
3	158	358	213
3	157	304	214
3	216	360	215
3	213	359	216
3	220	316	217
3	217	315	218
3	222	318	219
3	219	317	220
3	223	320	221
3	221	319	222
2	321	223
3	218	314	224
3	224	313	225
3	227	253	226
3	240	252	227
3	231	81	228
3	228	80	229
3	233	79	230
3	230	78	231
3	343	102	232
3	232	76	233
3	235	259	234
3	304	258	235
3	237	261	236
3	234	260	237
3	239	255	238
3	236	254	239
3	241	257	240
3	238	256	241
3	243	27	242
3	244	26	243
3	245	29	244
3	295	28	245
3	247	23	246
3	248	22	247
3	249	25	248
3	242	24	249
3	251	21	250
3	246	20	251
3	257	87	252
3	252	86	253
3	261	108	254
3	254	107	255
3	255	106	256
3	256	105	257
3	92	104	258
3	258	103	259
3	259	77	260
3	260	101	261
3	229	83	262
3	262	82	263
2	271	264
2	264	265
2	265	266
2	266	267
2	57	268
2	268	269
2	269	270
2	270	271
2	267	272
2	272	273
3	275	220	274
3	279	219	275
3	277	218	276
3	274	217	277
2	223	278
3	280	222	279
3	278	221	280
3	282	225	281
3	276	224	282
3	286	118	283
3	283	117	284
3	288	112	285
3	285	111	286
3	290	110	287
3	287	109	288
3	292	116	289
3	289	115	290
3	41	114	291
3	291	113	292
3	263	85	293
3	293	84	294
3	296	214	295
3	300	157	296
3	298	208	297
3	299	207	298
2	206	299
3	301	205	300
3	302	204	301
3	303	153	302
3	297	148	303
3	305	92	304
3	308	91	305
3	307	99	306
3	311	98	307
3	309	97	308
3	306	96	309
2	95	310
3	312	94	311
3	310	93	312
3	314	172	313
3	315	171	314
3	316	90	315
3	317	89	316
3	318	88	317
3	319	128	318
3	320	178	319
3	321	177	320
2	176	321
2	195	322
3	324	194	323
3	322	193	324
3	326	199	325
3	323	198	326
3	328	197	327
3	325	196	328
3	330	201	329
3	327	200	330
3	147	63	331
3	339	170	332
3	332	169	333
3	337	168	334
3	334	167	335
3	172	166	336
3	336	165	337
3	341	164	338
3	338	163	339
3	335	162	340
3	340	161	341
3	347	282	342
3	342	281	343
3	350	275	344
3	344	274	345
3	345	277	346
3	346	276	347
2	278	348
3	348	280	349
3	349	279	350
3	360	184	351
3	351	183	352
3	100	192	353
3	353	191	354
3	354	190	355
3	355	189	356
3	356	188	357
3	357	187	358
3	358	186	359
3	359	185	360

8
 0.00000000 1.00000000
 0.00000000 1.00000000
 0.00000000 1.00000000
 1.00000000 0.00000000

8
 0.00000000 1.00000000
 0.00000000 1.00000000
 1.00000000 0.00000000
 1.00000000 0.00000000

8
 1.00000000 0.00000000
 0.00000000 1.00000000
 0.00000000 1.00000000
 0.00000000 1.00000000

8
 0.07686180 0.92313800
 0.00679345 0.99320700
 0.38529200 0.61470800
 0.95957300 0.04042680

8
 0.00000000 1.00000000
 0.00000000 1.00000000
 0.00000000 1.00000000
 1.00000000 0.00000000

8
 1.00000000 0.00000000
 1.00000000 0.00000000
 1.00000000 0.00000000
 0.00000000 1.00000000

8
 0.78667000 0.21333000
 0.26827100 0.73172900
 0.00256134 0.99743900
 0.16177800 0.83822200

8
 1.00000000 0.00000000
 1.00000000 0.00000000
 0.00000000 1.00000000
 0.00000000 1.00000000

8
 0.17196100 0.82803900
 0.22784400 0.77215600
 0.79991000 0.20009000
 0.33373900 0.66626100

8
 0.00000000 1.00000000
 0.00000000 1.00000000
 0.00000000 1.00000000
 1.00000000 0.00000000

8
 0.00000000 1.00000000
 1.00000000 0.00000000
 1.00000000 0.00000000
 1.00000000 0.00000000

8
 1.00000000 0.00000000
 0.00000000 1.00000000
 0.00000000 1.00000000
 0.00000000 1.00000000

8
 0.00000000 1.00000000
 0.00000000 1.00000000
 0.00000000 1.00000000
 1.00000000 0.00000000

8
 0.00000000 1.00000000
 0.00000000 1.00000000
 1.00000000 0.00000000
 0.00000000 1.00000000

8
 0.66007900 0.33992100
 0.04639410 0.95360600
 0.88696900 0.11303100
 0.03636810 0.96363200

8
 1.00000000 0.00000000
 0.00000000 1.00000000
 1.00000000 0.00000000
 1.00000000 0.00000000

8
 1.00000000 0.00000000
 0.00000000 1.00000000
 1.00000000 0.00000000
 0.00000000 1.00000000

8
 0.00000000 1.00000000
 0.00000000 1.00000000
 0.00000000 1.00000000
 1.00000000 0.00000000

8
 1.00000000 0.00000000
 1.00000000 0.00000000
 0.00000000 1.00000000
 0.00000000 1.00000000

8
 1.00000000 0.00000000
 0.00000000 1.00000000
 1.00000000 0.00000000
 1.00000000 0.00000000

8
 1.00000000 0.00000000
 0.00000000 1.00000000
 0.00000000 1.00000000
 0.00000000 1.00000000

8
 0.00000000 1.00000000
 1.00000000 0.00000000
 0.00000000 1.00000000
 1.00000000 0.00000000

8
 0.00000000 1.00000000
 1.00000000 0.00000000
 1.00000000 0.00000000
 1.00000000 0.00000000

8
 1.00000000 0.00000000
 0.00000000 1.00000000
 0.00000000 1.00000000
 0.00000000 1.00000000

8
 0.74841700 0.25158300
 0.31611000 0.68389000
 0.50482500 0.49517500
 0.88283600 0.11716400

8
 0.00000000 1.00000000
 0.00000000 1.00000000
 1.00000000 0.00000000
 1.00000000 0.00000000

8
 1.00000000 0.00000000
 1.00000000 0.00000000
 1.00000000 0.00000000
 0.00000000 1.00000000

8
 1.00000000 0.00000000
 0.00000000 1.00000000
 1.00000000 0.00000000
 0.00000000 1.00000000

8
 0.00000000 1.00000000
 0.00000000 1.00000000
 1.00000000 0.00000000
 1.00000000 0.00000000

8
 1.00000000 0.00000000
 0.00000000 1.00000000
 1.00000000 0.00000000
 0.00000000 1.00000000

8
 1.00000000 0.00000000
 1.00000000 0.00000000
 1.00000000 0.00000000
 0.00000000 1.00000000

8
 1.00000000 0.00000000
 0.00000000 1.00000000
 1.00000000 0.00000000
 0.00000000 1.00000000

8
 0.00000000 1.00000000
 1.00000000 0.00000000
 0.00000000 1.00000000
 0.00000000 1.00000000

8
 1.00000000 0.00000000
 1.00000000 0.00000000
 1.00000000 0.00000000
 0.00000000 1.00000000

8
 0.00000000 1.00000000
 1.00000000 0.00000000
 0.00000000 1.00000000
 1.00000000 0.00000000

8
 0.00000000 1.00000000
 1.00000000 0.00000000
 1.00000000 0.00000000
 0.00000000 1.00000000

8
 0.10852700 0.89147300
 0.39804500 0.60195500
 0.25867500 0.74132500
 0.86296900 0.13703100

8
 0.22632900 0.77367100
 0.84639700 0.15360300
 0.79514400 0.20485600
 0.89191900 0.10808100

8
 1.00000000 0.00000000
 1.00000000 0.00000000
 0.00000000 1.00000000
 0.00000000 1.00000000

8
 0.00000000 1.00000000
 1.00000000 0.00000000
 0.00000000 1.00000000
 1.00000000 0.00000000

8
 0.00000000 1.00000000
 1.00000000 0.00000000
 1.00000000 0.00000000
 1.00000000 0.00000000

8
 0.00000000 1.00000000
 1.00000000 0.00000000
 1.00000000 0.00000000
 1.00000000 0.00000000

8
 1.00000000 0.00000000
 1.00000000 0.00000000
 1.00000000 0.00000000
 0.00000000 1.00000000

8
 0.76326300 0.23673700
 0.96285200 0.03714820
 0.89683500 0.10316500
 0.13535600 0.86464400

8
 1.00000000 0.00000000
 1.00000000 0.00000000
 1.00000000 0.00000000
 0.00000000 1.00000000

8
 0.75597800 0.24402200
 0.65504500 0.34495500
 0.53434400 0.46565600
 0.85267100 0.14732900

4
 0.00000000 1.00000000
 1.00000000 0.00000000

8
 0.94457900 0.05542140
 0.51942200 0.48057800
 0.40410100 0.59589900
 0.73870600 0.26129400

8
 0.00000000 1.00000000
 1.00000000 0.00000000
 1.00000000 0.00000000
 1.00000000 0.00000000

4
 0.56083800 0.43916200
 0.93053100 0.06946850

4
 1.00000000 0.00000000
 0.00000000 1.00000000

2
 0.68713300 0.31286700

4
 0.41086600 0.58913400
 0.83787200 0.16212800

4
 1.00000000 0.00000000
 0.00000000 1.00000000

4
 1.00000000 0.00000000
 0.00000000 1.00000000

4
 0.00000000 1.00000000
 1.00000000 0.00000000

4
 1.00000000 0.00000000
 0.00000000 1.00000000

4
 1.00000000 0.00000000
 0.00000000 1.00000000

8
 0.00000000 1.00000000
 1.00000000 0.00000000
 1.00000000 0.00000000
 1.00000000 0.00000000

8
 0.00000000 1.00000000
 0.00000000 1.00000000
 0.00000000 1.00000000
 1.00000000 0.00000000

4
 0.00000000 1.00000000
 1.00000000 0.00000000

8
 0.56713100 0.43286900
 0.11654500 0.88345500
 0.55543600 0.44456400
 0.00570849 0.99429200

8
 0.25176000 0.74824000
 0.45051200 0.54948800
 0.24275300 0.75724700
 0.44209500 0.55790500

8
 0.00000000 1.00000000
 1.00000000 0.00000000
 0.00000000 1.00000000
 1.00000000 0.00000000

8
 0.61384100 0.38615900
 0.46913000 0.53087000
 0.54423300 0.45576700
 0.15461000 0.84539000

8
 1.00000000 0.00000000
 1.00000000 0.00000000
 0.00000000 1.00000000
 1.00000000 0.00000000

8
 0.00000000 1.00000000
 0.00000000 1.00000000
 1.00000000 0.00000000
 1.00000000 0.00000000

8
 1.00000000 0.00000000
 1.00000000 0.00000000
 1.00000000 0.00000000
 0.00000000 1.00000000

8
 1.00000000 0.00000000
 0.00000000 1.00000000
 0.00000000 1.00000000
 1.00000000 0.00000000

8
 0.18924300 0.81075700
 0.07397740 0.92602300
 0.79837200 0.20162800
 0.57188800 0.42811200

8
 1.00000000 0.00000000
 0.00000000 1.00000000
 0.00000000 1.00000000
 1.00000000 0.00000000

8
 0.65151500 0.34848500
 0.09869010 0.90131000
 0.38533600 0.61466400
 0.76065900 0.23934100

8
 0.60600100 0.39399900
 0.78703800 0.21296200
 0.65523700 0.34476300
 0.67488300 0.32511700

8
 0.23125600 0.76874400
 0.37974300 0.62025700
 0.31610700 0.68389300
 0.02705810 0.97294200

8
 1.00000000 0.00000000
 1.00000000 0.00000000
 1.00000000 0.00000000
 0.00000000 1.00000000

4
 0.41982800 0.58017200
 0.12822300 0.87177700

8
 1.00000000 0.00000000
 0.00000000 1.00000000
 0.00000000 1.00000000
 1.00000000 0.00000000

8
 0.83348400 0.16651600
 0.24439600 0.75560400
 0.86590700 0.13409300
 0.05532190 0.94467800

8
 0.00000000 1.00000000
 1.00000000 0.00000000
 0.00000000 1.00000000
 0.00000000 1.00000000

8
 1.00000000 0.00000000
 0.00000000 1.00000000
 0.00000000 1.00000000
 1.00000000 0.00000000

8
 0.00000000 1.00000000
 0.00000000 1.00000000
 1.00000000 0.00000000
 0.00000000 1.00000000

8
 0.34789100 0.65210900
 0.26734200 0.73265800
 0.73389400 0.26610600
 0.88555400 0.11444600

8
 1.00000000 0.00000000
 0.00000000 1.00000000
 1.00000000 0.00000000
 0.00000000 1.00000000

8
 1.00000000 0.00000000
 0.00000000 1.00000000
 0.00000000 1.00000000
 0.00000000 1.00000000

8
 0.00000000 1.00000000
 1.00000000 0.00000000
 0.00000000 1.00000000
 0.00000000 1.00000000

8
 0.54457000 0.45543000
 0.89141500 0.10858500
 0.47833000 0.52167000
 0.81720900 0.18279100

8
 1.00000000 0.00000000
 0.00000000 1.00000000
 0.00000000 1.00000000
 0.00000000 1.00000000

8
 0.37157200 0.62842800
 0.26260500 0.73739500
 0.65853100 0.34146900
 0.42689400 0.57310600

8
 0.00000000 1.00000000
 0.00000000 1.00000000
 1.00000000 0.00000000
 1.00000000 0.00000000

8
 0.00000000 1.00000000
 0.00000000 1.00000000
 1.00000000 0.00000000
 1.00000000 0.00000000

8
 0.00000000 1.00000000
 1.00000000 0.00000000
 1.00000000 0.00000000
 0.00000000 1.00000000

8
 0.00000000 1.00000000
 0.00000000 1.00000000
 0.00000000 1.00000000
 1.00000000 0.00000000

8
 1.00000000 0.00000000
 1.00000000 0.00000000
 0.00000000 1.00000000
 1.00000000 0.00000000

8
 0.66498400 0.33501600
 0.67426100 0.32573900
 0.77355300 0.22644700
 0.10361800 0.89638200

8
 0.00000000 1.00000000
 1.00000000 0.00000000
 0.00000000 1.00000000
 0.00000000 1.00000000

4
 0.69002600 0.30997400
 0.08722010 0.91278000

8
 1.00000000 0.00000000
 1.00000000 0.00000000
 0.00000000 1.00000000
 1.00000000 0.00000000

8
 0.00000000 1.00000000
 1.00000000 0.00000000
 0.00000000 1.00000000
 0.00000000 1.00000000

8
 1.00000000 0.00000000
 0.00000000 1.00000000
 0.00000000 1.00000000
 1.00000000 0.00000000

8
 1.00000000 0.00000000
 0.00000000 1.00000000
 1.00000000 0.00000000
 0.00000000 1.00000000

8
 1.00000000 0.00000000
 0.00000000 1.00000000
 1.00000000 0.00000000
 1.00000000 0.00000000

8
 0.00000000 1.00000000
 1.00000000 0.00000000
 1.00000000 0.00000000
 1.00000000 0.00000000

8
 0.00000000 1.00000000
 0.00000000 1.00000000
 1.00000000 0.00000000
 1.00000000 0.00000000

8
 0.00000000 1.00000000
 1.00000000 0.00000000
 1.00000000 0.00000000
 0.00000000 1.00000000

8
 1.00000000 0.00000000
 0.00000000 1.00000000
 1.00000000 0.00000000
 1.00000000 0.00000000

8
 1.00000000 0.00000000
 0.00000000 1.00000000
 0.00000000 1.00000000
 1.00000000 0.00000000

8
 1.00000000 0.00000000
 1.00000000 0.00000000
 1.00000000 0.00000000
 0.00000000 1.00000000

8
 0.43863300 0.56136700
 0.95244600 0.04755410
 0.34310600 0.65689400
 0.46123900 0.53876100

8
 1.00000000 0.00000000
 0.00000000 1.00000000
 0.00000000 1.00000000
 1.00000000 0.00000000

8
 0.16428900 0.83571100
 0.96754100 0.03245930
 0.45123700 0.54876300
 0.35564100 0.64435900

8
 1.00000000 0.00000000
 0.00000000 1.00000000
 1.00000000 0.00000000
 0.00000000 1.00000000

8
 0.00000000 1.00000000
 1.00000000 0.00000000
 0.00000000 1.00000000
 0.00000000 1.00000000

8
 0.00868362 0.99131600
 0.09911320 0.90088700
 0.27844800 0.72155200
 0.54684700 0.45315300

8
 0.47094200 0.52905800
 0.52751600 0.47248400
 0.75016700 0.24983300
 0.35430500 0.64569500

8
 1.00000000 0.00000000
 1.00000000 0.00000000
 0.00000000 1.00000000
 1.00000000 0.00000000

8
 1.00000000 0.00000000
 0.00000000 1.00000000
 1.00000000 0.00000000
 0.00000000 1.00000000

8
 0.00000000 1.00000000
 0.00000000 1.00000000
 1.00000000 0.00000000
 0.00000000 1.00000000

8
 0.00000000 1.00000000
 0.00000000 1.00000000
 1.00000000 0.00000000
 1.00000000 0.00000000

8
 1.00000000 0.00000000
 0.00000000 1.00000000
 1.00000000 0.00000000
 1.00000000 0.00000000

8
 0.00000000 1.00000000
 1.00000000 0.00000000
 0.00000000 1.00000000
 0.00000000 1.00000000

8
 0.55212100 0.44787900
 0.28087500 0.71912500
 0.98071700 0.01928290
 0.80585000 0.19415000

8
 0.00000000 1.00000000
 1.00000000 0.00000000
 1.00000000 0.00000000
 0.00000000 1.00000000

8
 0.00000000 1.00000000
 0.00000000 1.00000000
 0.00000000 1.00000000
 1.00000000 0.00000000

4
 1.00000000 0.00000000
 0.00000000 1.00000000

8
 0.00000000 1.00000000
 1.00000000 0.00000000
 0.00000000 1.00000000
 0.00000000 1.00000000

8
 1.00000000 0.00000000
 1.00000000 0.00000000
 1.00000000 0.00000000
 0.00000000 1.00000000

8
 1.00000000 0.00000000
 0.00000000 1.00000000
 1.00000000 0.00000000
 0.00000000 1.00000000

8
 0.59840300 0.40159700
 0.42524600 0.57475400
 0.44367100 0.55632900
 0.94624100 0.05375920

8
 0.23450100 0.76549900
 0.84517800 0.15482200
 0.40652300 0.59347700
 0.58560700 0.41439300

4
 0.00000000 1.00000000
 1.00000000 0.00000000

8
 1.00000000 0.00000000
 1.00000000 0.00000000
 0.00000000 1.00000000
 0.00000000 1.00000000

8
 0.00000000 1.00000000
 1.00000000 0.00000000
 0.00000000 1.00000000
 0.00000000 1.00000000

8
 0.00000000 1.00000000
 1.00000000 0.00000000
 1.00000000 0.00000000
 0.00000000 1.00000000

8
 0.00000000 1.00000000
 1.00000000 0.00000000
 0.00000000 1.00000000
 0.00000000 1.00000000

8
 0.74957700 0.25042300
 0.30281900 0.69718100
 0.62079800 0.37920200
 0.89014600 0.10985400

8
 0.00701799 0.99298200
 0.42956000 0.57044000
 0.79079800 0.20920200
 0.41841000 0.58159000

8
 0.00000000 1.00000000
 0.00000000 1.00000000
 1.00000000 0.00000000
 1.00000000 0.00000000

8
 0.68582300 0.31417700
 0.70187700 0.29812300
 0.55495100 0.44504900
 0.37494900 0.62505100

8
 0.00000000 1.00000000
 1.00000000 0.00000000
 1.00000000 0.00000000
 0.00000000 1.00000000

8
 1.00000000 0.00000000
 1.00000000 0.00000000
 0.00000000 1.00000000
 1.00000000 0.00000000

8
 0.00000000 1.00000000
 1.00000000 0.00000000
 0.00000000 1.00000000
 1.00000000 0.00000000

8
 0.63636700 0.36363300
 0.44458700 0.55541300
 0.11270800 0.88729200
 0.89477900 0.10522100

8
 0.32275100 0.67724900
 0.09519200 0.90480800
 0.21012400 0.78987600
 0.31306800 0.68693200

8
 0.00000000 1.00000000
 0.00000000 1.00000000
 1.00000000 0.00000000
 1.00000000 0.00000000

4
 0.83523400 0.16476600
 0.74826400 0.25173600

8
 0.85557000 0.14443000
 0.22609400 0.77390600
 0.19449900 0.80550100
 0.16863700 0.83136300

8
 1.00000000 0.00000000
 0.00000000 1.00000000
 1.00000000 0.00000000
 0.00000000 1.00000000

8
 0.00000000 1.00000000
 0.00000000 1.00000000
 0.00000000 1.00000000
 1.00000000 0.00000000

8
 1.00000000 0.00000000
 1.00000000 0.00000000
 0.00000000 1.00000000
 1.00000000 0.00000000

4
 0.59186500 0.40813500
 0.53057900 0.46942100

8
 0.95342400 0.04657640
 0.59944000 0.40056000
 0.58950900 0.41049100
 0.54528800 0.45471200

8
 0.00000000 1.00000000
 0.00000000 1.00000000
 0.00000000 1.00000000
 1.00000000 0.00000000

8
 0.35651000 0.64349000
 0.95313800 0.04686180
 0.25193700 0.74806300
 0.80734500 0.19265500

8
 0.00000000 1.00000000
 1.00000000 0.00000000
 1.00000000 0.00000000
 1.00000000 0.00000000

8
 0.46367500 0.53632500
 0.36540500 0.63459500
 0.46391400 0.53608600
 0.02260540 0.97739500

8
 0.00000000 1.00000000
 1.00000000 0.00000000
 1.00000000 0.00000000
 0.00000000 1.00000000

8
 0.35596400 0.64403600
 0.74012700 0.25987300
 0.97361900 0.02638060
 0.89644700 0.10355300

8
 0.82866600 0.17133400
 0.60229300 0.39770700
 0.13441900 0.86558100
 0.28565400 0.71434600

8
 0.00000000 1.00000000
 0.00000000 1.00000000
 0.00000000 1.00000000
 1.00000000 0.00000000

8
 1.00000000 0.00000000
 0.00000000 1.00000000
 1.00000000 0.00000000
 1.00000000 0.00000000

8
 1.00000000 0.00000000
 0.00000000 1.00000000
 0.00000000 1.00000000
 0.00000000 1.00000000

8
 1.00000000 0.00000000
 1.00000000 0.00000000
 0.00000000 1.00000000
 0.00000000 1.00000000

8
 1.00000000 0.00000000
 0.00000000 1.00000000
 1.00000000 0.00000000
 0.00000000 1.00000000

8
 1.00000000 0.00000000
 0.00000000 1.00000000
 1.00000000 0.00000000
 0.00000000 1.00000000

8
 0.00000000 1.00000000
 0.00000000 1.00000000
 1.00000000 0.00000000
 0.00000000 1.00000000

8
 0.91684800 0.08315180
 0.84766200 0.15233800
 0.81390200 0.18609800
 0.80212600 0.19787400

8
 0.00000000 1.00000000
 1.00000000 0.00000000
 0.00000000 1.00000000
 0.00000000 1.00000000

8
 0.00000000 1.00000000
 1.00000000 0.00000000
 1.00000000 0.00000000
 1.00000000 0.00000000

8
 0.00000000 1.00000000
 1.00000000 0.00000000
 0.00000000 1.00000000
 1.00000000 0.00000000

8
 0.59230700 0.40769300
 0.05343040 0.94657000
 0.04635230 0.95364800
 0.38367700 0.61632300

8
 0.00000000 1.00000000
 1.00000000 0.00000000
 1.00000000 0.00000000
 1.00000000 0.00000000

8
 1.00000000 0.00000000
 0.00000000 1.00000000
 1.00000000 0.00000000
 1.00000000 0.00000000

8
 0.26380000 0.73620000
 0.33130900 0.66869100
 0.10003900 0.89996100
 0.08688910 0.91311100

8
 0.00000000 1.00000000
 1.00000000 0.00000000
 1.00000000 0.00000000
 0.00000000 1.00000000

8
 0.80536600 0.19463400
 0.74930500 0.25069500
 0.57924900 0.42075100
 0.62385000 0.37615000

8
 1.00000000 0.00000000
 0.00000000 1.00000000
 1.00000000 0.00000000
 0.00000000 1.00000000

4
 1.00000000 0.00000000
 0.00000000 1.00000000

8
 0.00000000 1.00000000
 0.00000000 1.00000000
 0.00000000 1.00000000
 1.00000000 0.00000000

8
 0.00000000 1.00000000
 1.00000000 0.00000000
 1.00000000 0.00000000
 0.00000000 1.00000000

8
 0.00000000 1.00000000
 1.00000000 0.00000000
 0.00000000 1.00000000
 0.00000000 1.00000000

8
 1.00000000 0.00000000
 0.00000000 1.00000000
 1.00000000 0.00000000
 1.00000000 0.00000000

8
 0.00000000 1.00000000
 0.00000000 1.00000000
 1.00000000 0.00000000
 1.00000000 0.00000000

8
 1.00000000 0.00000000
 0.00000000 1.00000000
 1.00000000 0.00000000
 1.00000000 0.00000000

8
 0.38264500 0.61735500
 0.35640200 0.64359800
 0.76362300 0.23637700
 0.40952000 0.59048000

8
 0.06888180 0.93111800
 0.10367400 0.89632600
 0.53400500 0.46599500
 0.39909400 0.60090600

8
 0.00000000 1.00000000
 0.00000000 1.00000000
 0.00000000 1.00000000
 1.00000000 0.00000000

8
 1.00000000 0.00000000
 1.00000000 0.00000000
 1.00000000 0.00000000
 0.00000000 1.00000000

8
 1.00000000 0.00000000
 0.00000000 1.00000000
 0.00000000 1.00000000
 1.00000000 0.00000000

8
 0.00000000 1.00000000
 1.00000000 0.00000000
 1.00000000 0.00000000
 1.00000000 0.00000000

8
 0.95730800 0.04269220
 0.85596300 0.14403700
 0.02687520 0.97312500
 0.41963700 0.58036300

8
 0.07729520 0.92270500
 0.63931500 0.36068500
 0.33021200 0.66978800
 0.80398500 0.19601500

8
 0.00000000 1.00000000
 1.00000000 0.00000000
 1.00000000 0.00000000
 0.00000000 1.00000000

8
 0.83086600 0.16913400
 0.61322500 0.38677500
 0.10775400 0.89224600
 0.72564400 0.27435600

8
 1.00000000 0.00000000
 1.00000000 0.00000000
 1.00000000 0.00000000
 0.00000000 1.00000000

8
 0.00000000 1.00000000
 1.00000000 0.00000000
 0.00000000 1.00000000
 1.00000000 0.00000000

4
 1.00000000 0.00000000
 0.00000000 1.00000000

8
 0.00000000 1.00000000
 1.00000000 0.00000000
 1.00000000 0.00000000
 1.00000000 0.00000000

8
 0.32915600 0.67084400
 0.18130400 0.81869600
 0.77701500 0.22298500
 0.00342976 0.99657000

8
 1.00000000 0.00000000
 0.00000000 1.00000000
 0.00000000 1.00000000
 1.00000000 0.00000000

8
 1.00000000 0.00000000
 1.00000000 0.00000000
 1.00000000 0.00000000
 0.00000000 1.00000000

8
 1.00000000 0.00000000
 0.00000000 1.00000000
 0.00000000 1.00000000
 0.00000000 1.00000000

8
 0.98342900 0.01657130
 0.89560300 0.10439700
 0.66559100 0.33440900
 0.30964000 0.69036000

8
 0.73919800 0.26080200
 0.71381600 0.28618400
 0.57613300 0.42386700
 0.42907900 0.57092100

8
 0.00000000 1.00000000
 0.00000000 1.00000000
 1.00000000 0.00000000
 1.00000000 0.00000000

8
 0.00000000 1.00000000
 0.00000000 1.00000000
 0.00000000 1.00000000
 1.00000000 0.00000000

8
 0.00000000 1.00000000
 1.00000000 0.00000000
 1.00000000 0.00000000
 0.00000000 1.00000000

4
 0.00000000 1.00000000
 1.00000000 0.00000000

8
 1.00000000 0.00000000
 1.00000000 0.00000000
 0.00000000 1.00000000
 1.00000000 0.00000000

8
 0.83400700 0.16599300
 0.42915200 0.57084800
 0.12373900 0.87626100
 0.73679100 0.26320900

8
 0.00000000 1.00000000
 1.00000000 0.00000000
 0.00000000 1.00000000
 0.00000000 1.00000000

8
 1.00000000 0.00000000
 1.00000000 0.00000000
 1.00000000 0.00000000
 0.00000000 1.00000000

8
 1.00000000 0.00000000
 0.00000000 1.00000000
 0.00000000 1.00000000
 1.00000000 0.00000000

8
 0.00000000 1.00000000
 1.00000000 0.00000000
 0.00000000 1.00000000
 0.00000000 1.00000000

8
 1.00000000 0.00000000
 1.00000000 0.00000000
 1.00000000 0.00000000
 0.00000000 1.00000000

8
 0.00000000 1.00000000
 1.00000000 0.00000000
 0.00000000 1.00000000
 1.00000000 0.00000000

8
 1.00000000 0.00000000
 1.00000000 0.00000000
 1.00000000 0.00000000
 0.00000000 1.00000000

8
 0.00000000 1.00000000
 1.00000000 0.00000000
 0.00000000 1.00000000
 1.00000000 0.00000000

8
 1.00000000 0.00000000
 0.00000000 1.00000000
 0.00000000 1.00000000
 1.00000000 0.00000000

8
 0.00000000 1.00000000
 0.00000000 1.00000000
 1.00000000 0.00000000
 1.00000000 0.00000000

8
 0.17268300 0.82731700
 0.68794600 0.31205400
 0.20125300 0.79874700
 0.70486300 0.29513700

8
 0.00000000 1.00000000
 0.00000000 1.00000000
 0.00000000 1.00000000
 1.00000000 0.00000000

8
 0.44736800 0.55263200
 0.46666500 0.53333500
 0.93217100 0.06782890
 0.24759100 0.75240900

8
 1.00000000 0.00000000
 0.00000000 1.00000000
 1.00000000 0.00000000
 0.00000000 1.00000000

4
 0.11196900 0.88803100
 0.97665200 0.02334830

8
 0.00000000 1.00000000
 1.00000000 0.00000000
 0.00000000 1.00000000
 0.00000000 1.00000000

8
 0.00000000 1.00000000
 1.00000000 0.00000000
 1.00000000 0.00000000
 1.00000000 0.00000000

8
 0.71720200 0.28279800
 0.31761200 0.68238800
 0.34065500 0.65934500
 0.73911800 0.26088200

8
 0.94702400 0.05297650
 0.78258800 0.21741200
 0.46905300 0.53094700
 0.10224500 0.89775500

8
 0.00000000 1.00000000
 1.00000000 0.00000000
 1.00000000 0.00000000
 0.00000000 1.00000000

8
 0.93795300 0.06204730
 0.51812800 0.48187200
 0.73077500 0.26922500
 0.06904830 0.93095200

8
 0.00000000 1.00000000
 0.00000000 1.00000000
 0.00000000 1.00000000
 1.00000000 0.00000000

8
 0.86700300 0.13299700
 0.64622200 0.35377800
 0.19682400 0.80317600
 0.31322100 0.68677900

8
 0.32144500 0.67855500
 0.81770900 0.18229100
 0.95543900 0.04456060
 0.91275500 0.08724550

8
 0.92637200 0.07362800
 0.16316500 0.83683500
 0.70805300 0.29194700
 0.51568700 0.48431300

8
 0.00000000 1.00000000
 1.00000000 0.00000000
 0.00000000 1.00000000
 1.00000000 0.00000000

8
 1.00000000 0.00000000
 0.00000000 1.00000000
 1.00000000 0.00000000
 0.00000000 1.00000000

8
 1.00000000 0.00000000
 1.00000000 0.00000000
 0.00000000 1.00000000
 0.00000000 1.00000000

8
 1.00000000 0.00000000
 1.00000000 0.00000000
 0.00000000 1.00000000
 0.00000000 1.00000000

8
 1.00000000 0.00000000
 0.00000000 1.00000000
 0.00000000 1.00000000
 0.00000000 1.00000000

8
 0.00000000 1.00000000
 0.00000000 1.00000000
 1.00000000 0.00000000
 1.00000000 0.00000000

8
 1.00000000 0.00000000
 1.00000000 0.00000000
 0.00000000 1.00000000
 1.00000000 0.00000000

8
 0.58329300 0.41670700
 0.65716800 0.34283200
 0.84833700 0.15166300
 0.15295400 0.84704600

8
 1.00000000 0.00000000
 1.00000000 0.00000000
 0.00000000 1.00000000
 1.00000000 0.00000000

8
 0.00000000 1.00000000
 1.00000000 0.00000000
 0.00000000 1.00000000
 0.00000000 1.00000000

8
 1.00000000 0.00000000
 1.00000000 0.00000000
 0.00000000 1.00000000
 1.00000000 0.00000000

8
 0.58554900 0.41445100
 0.94469000 0.05531020
 0.60544600 0.39455400
 0.12433100 0.87566900

8
 0.00000000 1.00000000
 1.00000000 0.00000000
 0.00000000 1.00000000
 0.00000000 1.00000000

8
 1.00000000 0.00000000
 1.00000000 0.00000000
 1.00000000 0.00000000
 0.00000000 1.00000000

8
 1.00000000 0.00000000
 0.00000000 1.00000000
 1.00000000 0.00000000
 0.00000000 1.00000000

8
 0.00000000 1.00000000
 0.00000000 1.00000000
 1.00000000 0.00000000
 0.00000000 1.00000000

8
 0.00000000 1.00000000
 1.00000000 0.00000000
 1.00000000 0.00000000
 1.00000000 0.00000000

8
 0.00000000 1.00000000
 1.00000000 0.00000000
 1.00000000 0.00000000
 0.00000000 1.00000000

8
 0.00000000 1.00000000
 0.00000000 1.00000000
 1.00000000 0.00000000
 1.00000000 0.00000000

8
 0.00000000 1.00000000
 1.00000000 0.00000000
 0.00000000 1.00000000
 0.00000000 1.00000000

8
 0.00000000 1.00000000
 1.00000000 0.00000000
 1.00000000 0.00000000
 1.00000000 0.00000000

8
 0.68393700 0.31606300
 0.89610600 0.10389400
 0.51757100 0.48242900
 0.69931900 0.30068100

8
 1.00000000 0.00000000
 1.00000000 0.00000000
 0.00000000 1.00000000
 0.00000000 1.00000000

8
 0.00000000 1.00000000
 1.00000000 0.00000000
 1.00000000 0.00000000
 1.00000000 0.00000000

8
 0.17779500 0.82220500
 0.86036000 0.13964000
 0.20331700 0.79668300
 0.92974100 0.07025910

8
 0.00000000 1.00000000
 1.00000000 0.00000000
 0.00000000 1.00000000
 0.00000000 1.00000000

8
 1.00000000 0.00000000
 0.00000000 1.00000000
 1.00000000 0.00000000
 0.00000000 1.00000000

8
 1.00000000 0.00000000
 0.00000000 1.00000000
 0.00000000 1.00000000
 1.00000000 0.00000000

8
 1.00000000 0.00000000
 1.00000000 0.00000000
 0.00000000 1.00000000
 0.00000000 1.00000000

8
 1.00000000 0.00000000
 0.00000000 1.00000000
 0.00000000 1.00000000
 1.00000000 0.00000000

4
 0.00000000 1.00000000
 1.00000000 0.00000000

4
 0.17234400 0.82765600
 0.08893070 0.91106900

4
 0.73318300 0.26681700
 0.01946210 0.98053800

4
 1.00000000 0.00000000
 0.00000000 1.00000000

4
 1.00000000 0.00000000
 0.00000000 1.00000000

4
 0.00000000 1.00000000
 1.00000000 0.00000000

4
 0.00000000 1.00000000
 1.00000000 0.00000000

4
 1.00000000 0.00000000
 0.00000000 1.00000000

4
 1.00000000 0.00000000
 0.00000000 1.00000000

4
 0.00000000 1.00000000
 1.00000000 0.00000000

8
 0.93691700 0.06308310
 0.22352200 0.77647800
 0.13390200 0.86609800
 0.16476100 0.83523900

8
 0.41938000 0.58062000
 0.57664800 0.42335200
 0.97734400 0.02265640
 0.42617300 0.57382700

8
 0.00000000 1.00000000
 1.00000000 0.00000000
 1.00000000 0.00000000
 0.00000000 1.00000000

8
 1.00000000 0.00000000
 1.00000000 0.00000000
 0.00000000 1.00000000
 1.00000000 0.00000000

4
 0.57543400 0.42456600
 0.95829800 0.04170220

8
 0.10343200 0.89656800
 0.29439100 0.70560900
 0.88758300 0.11241700
 0.77733400 0.22266600

8
 0.18556100 0.81443900
 0.16894300 0.83105700
 0.85007800 0.14992200
 0.61873300 0.38126700

8
 1.00000000 0.00000000
 0.00000000 1.00000000
 0.00000000 1.00000000
 0.00000000 1.00000000

8
 1.00000000 0.00000000
 0.00000000 1.00000000
 0.00000000 1.00000000
 0.00000000 1.00000000

8
 1.00000000 0.00000000
 0.00000000 1.00000000
 1.00000000 0.00000000
 1.00000000 0.00000000

8
 0.00000000 1.00000000
 1.00000000 0.00000000
 1.00000000 0.00000000
 1.00000000 0.00000000

8
 0.00000000 1.00000000
 1.00000000 0.00000000
 1.00000000 0.00000000
 1.00000000 0.00000000

8
 0.00000000 1.00000000
 1.00000000 0.00000000
 0.00000000 1.00000000
 1.00000000 0.00000000

8
 1.00000000 0.00000000
 0.00000000 1.00000000
 1.00000000 0.00000000
 0.00000000 1.00000000

8
 1.00000000 0.00000000
 0.00000000 1.00000000
 0.00000000 1.00000000
 1.00000000 0.00000000

8
 1.00000000 0.00000000
 0.00000000 1.00000000
 0.00000000 1.00000000
 0.00000000 1.00000000

8
 1.00000000 0.00000000
 1.00000000 0.00000000
 1.00000000 0.00000000
 0.00000000 1.00000000

8
 0.00000000 1.00000000
 0.00000000 1.00000000
 1.00000000 0.00000000
 0.00000000 1.00000000

8
 0.03086040 0.96914000
 0.43326000 0.56674000
 0.79502100 0.20497900
 0.92769600 0.07230420

8
 0.82066400 0.17933600
 0.86954100 0.13045900
 0.91602200 0.08397760
 0.84433000 0.15567000

8
 1.00000000 0.00000000
 0.00000000 1.00000000
 1.00000000 0.00000000
 0.00000000 1.00000000

8
 0.00000000 1.00000000
 0.00000000 1.00000000
 1.00000000 0.00000000
 0.00000000 1.00000000

8
 1.00000000 0.00000000
 1.00000000 0.00000000
 0.00000000 1.00000000
 1.00000000 0.00000000

8
 0.00000000 1.00000000
 1.00000000 0.00000000
 1.00000000 0.00000000
 1.00000000 0.00000000

8
 1.00000000 0.00000000
 0.00000000 1.00000000
 0.00000000 1.00000000
 0.00000000 1.00000000

4
 1.00000000 0.00000000
 0.00000000 1.00000000

8
 1.00000000 0.00000000
 0.00000000 1.00000000
 0.00000000 1.00000000
 0.00000000 1.00000000

8
 0.61906200 0.38093800
 0.72667000 0.27333000
 0.38202200 0.61797800
 0.90306100 0.09693900

8
 1.00000000 0.00000000
 1.00000000 0.00000000
 0.00000000 1.00000000
 0.00000000 1.00000000

8
 0.00000000 1.00000000
 0.00000000 1.00000000
 1.00000000 0.00000000
 0.00000000 1.00000000

8
 1.00000000 0.00000000
 1.00000000 0.00000000
 0.00000000 1.00000000
 1.00000000 0.00000000

8
 0.00000000 1.00000000
 1.00000000 0.00000000
 1.00000000 0.00000000
 1.00000000 0.00000000

8
 0.00000000 1.00000000
 0.00000000 1.00000000
 1.00000000 0.00000000
 1.00000000 0.00000000

8
 1.00000000 0.00000000
 1.00000000 0.00000000
 1.00000000 0.00000000
 0.00000000 1.00000000

8
 1.00000000 0.00000000
 0.00000000 1.00000000
 1.00000000 0.00000000
 0.00000000 1.00000000

8
 0.20086400 0.79913600
 0.53801500 0.46198500
 0.98299700 0.01700270
 0.63665600 0.36334400

4
 0.61397900 0.38602100
 0.85314700 0.14685300

8
 1.00000000 0.00000000
 0.00000000 1.00000000
 0.00000000 1.00000000
 0.00000000 1.00000000

8
 0.00000000 1.00000000
 1.00000000 0.00000000
 1.00000000 0.00000000
 1.00000000 0.00000000

8
 0.00000000 1.00000000
 1.00000000 0.00000000
 0.00000000 1.00000000
 0.00000000 1.00000000

8
 1.00000000 0.00000000
 1.00000000 0.00000000
 1.00000000 0.00000000
 0.00000000 1.00000000

8
 1.00000000 0.00000000
 1.00000000 0.00000000
 0.00000000 1.00000000
 0.00000000 1.00000000

8
 0.00000000 1.00000000
 0.00000000 1.00000000
 1.00000000 0.00000000
 0.00000000 1.00000000

8
 1.00000000 0.00000000
 1.00000000 0.00000000
 0.00000000 1.00000000
 0.00000000 1.00000000

8
 1.00000000 0.00000000
 1.00000000 0.00000000
 0.00000000 1.00000000
 0.00000000 1.00000000

8
 0.22384200 0.77615800
 0.95001100 0.04998940
 0.58743000 0.41257000
 0.77937800 0.22062200

8
 1.00000000 0.00000000
 0.00000000 1.00000000
 1.00000000 0.00000000
 1.00000000 0.00000000

4
 0.95898200 0.04101830
 0.49432300 0.50567700

4
 0.00000000 1.00000000
 1.00000000 0.00000000

8
 1.00000000 0.00000000
 0.00000000 1.00000000
 1.00000000 0.00000000
 0.00000000 1.00000000

8
 1.00000000 0.00000000
 0.00000000 1.00000000
 0.00000000 1.00000000
 0.00000000 1.00000000

8
 0.00000000 1.00000000
 1.00000000 0.00000000
 1.00000000 0.00000000
 1.00000000 0.00000000

8
 1.00000000 0.00000000
 0.00000000 1.00000000
 1.00000000 0.00000000
 0.00000000 1.00000000

8
 0.51980200 0.48019800
 0.18983300 0.81016700
 0.54212300 0.45787700
 0.61134200 0.38865800

8
 0.26568300 0.73431700
 0.66213200 0.33786800
 0.27892400 0.72107600
 0.87225500 0.12774500

8
 1.00000000 0.00000000
 1.00000000 0.00000000
 0.00000000 1.00000000
 1.00000000 0.00000000

8
 1.00000000 0.00000000
 1.00000000 0.00000000
 1.00000000 0.00000000
 0.00000000 1.00000000

8
 0.00000000 1.00000000
 1.00000000 0.00000000
 1.00000000 0.00000000
 1.00000000 0.00000000

8
 1.00000000 0.00000000
 1.00000000 0.00000000
 1.00000000 0.00000000
 0.00000000 1.00000000

8
 1.00000000 0.00000000
 0.00000000 1.00000000
 1.00000000 0.00000000
 1.00000000 0.00000000

8
 1.00000000 0.00000000
 1.00000000 0.00000000
 0.00000000 1.00000000
 0.00000000 1.00000000

8
 1.00000000 0.00000000
 0.00000000 1.00000000
 1.00000000 0.00000000
 0.00000000 1.00000000

8
 0.00000000 1.00000000
 0.00000000 1.00000000
 1.00000000 0.00000000
 1.00000000 0.00000000

8
 0.78369300 0.21630700
 0.16727000 0.83273000
 0.65761200 0.34238800
 0.13125800 0.86874200

8
 0.00000000 1.00000000
 1.00000000 0.00000000
 0.00000000 1.00000000
 1.00000000 0.00000000

8
 1.00000000 0.00000000
 1.00000000 0.00000000
 0.00000000 1.00000000
 0.00000000 1.00000000

8
 0.00000000 1.00000000
 1.00000000 0.00000000
 1.00000000 0.00000000
 1.00000000 0.00000000

8
 1.00000000 0.00000000
 0.00000000 1.00000000
 1.00000000 0.00000000
 1.00000000 0.00000000

8
 0.00000000 1.00000000
 1.00000000 0.00000000
 0.00000000 1.00000000
 1.00000000 0.00000000

8
 0.00000000 1.00000000
 1.00000000 0.00000000
 1.00000000 0.00000000
 0.00000000 1.00000000

8
 0.00000000 1.00000000
 1.00000000 0.00000000
 0.00000000 1.00000000
 0.00000000 1.00000000

8
 0.25041000 0.74959000
 0.75904600 0.24095400
 0.58931500 0.41068500
 0.19108500 0.80891500

8
 1.00000000 0.00000000
 0.00000000 1.00000000
 1.00000000 0.00000000
 1.00000000 0.00000000

8
 0.51372800 0.48627200
 0.23740100 0.76259900
 0.44621800 0.55378200
 0.74367700 0.25632300

4
 1.00000000 0.00000000
 0.00000000 1.00000000

8
 0.49729100 0.50270900
 0.84625500 0.15374500
 0.83632600 0.16367400
 0.06611710 0.93388300

8
 0.00000000 1.00000000
 1.00000000 0.00000000
 0.00000000 1.00000000
 1.00000000 0.00000000

8
 0.00000000 1.00000000
 1.00000000 0.00000000
 0.00000000 1.00000000
 0.00000000 1.00000000

8
 0.00000000 1.00000000
 1.00000000 0.00000000
 1.00000000 0.00000000
 0.00000000 1.00000000

8
 1.00000000 0.00000000
 0.00000000 1.00000000
 1.00000000 0.00000000
 0.00000000 1.00000000

8
 0.00000000 1.00000000
 1.00000000 0.00000000
 0.00000000 1.00000000
 0.00000000 1.00000000

8
 0.51886100 0.48113900
 0.83621900 0.16378100
 0.62706700 0.37293300
 0.09074900 0.90925100

8
 0.00000000 1.00000000
 1.00000000 0.00000000
 1.00000000 0.00000000
 1.00000000 0.00000000

8
 1.00000000 0.00000000
 0.00000000 1.00000000
 0.00000000 1.00000000
 1.00000000 0.00000000

8
 0.00000000 1.00000000
 0.00000000 1.00000000
 1.00000000 0.00000000
 1.00000000 0.00000000

8
 0.00000000 1.00000000
 0.00000000 1.00000000
 1.00000000 0.00000000
 1.00000000 0.00000000

8
 0.94739400 0.05260600
 0.54633400 0.45366600
 0.86535400 0.13464600
 0.27701200 0.72298800

